10
5
76040
0
0
39 50 41 68 74
1
0
56 36 54 42 49
2
0
63 50 75 52 59
3
0
62 41 57 60 59
4
0
60 56 63 44 54
5
0
39 52 43 52 53
6
0
66 55 65 40 45
7
0
42 48 55 62 47
8
0
79 52 39 36 46
9
0
47 55 40 51 44
